0 0 0 0
0 1 0 0
0 2 0 0
0 3 0 0
0 4 0 14
0 5 0 25
0 6 0 10
0 7 0 14
0 8 0 15
0 9 0 21
0 10 0 21
0 11 0 19
0 12 0 10
0 13 0 63
0 14 0 38
0 15 0 10
0 16 0 15
0 17 0 79
0 18 0 26
0 19 0 17
0 20 0 42
0 21 0 67
0 22 0 10
0 23 0 55
0 24 0 23
0 25 0 68
0 26 0 52
0 27 0 72
0 28 0 18
0 29 0 19
0 30 0 18
0 31 0 18
0 32 0 24
0 33 0 76
0 34 0 33
0 35 0 37
0 36 0 32
0 37 0 46
0 38 0 60
0 39 0 34
0 40 0 23
0 41 0 34
0 42 0 26
0 43 0 76
0 44 0 82
0 45 0 31
0 46 0 33
0 47 0 94
0 48 0 58
0 49 0 72
0 50 0 43
0 51 0 52
0 52 0 87
0 53 0 42
0 54 0 87
0 55 0 112
0 56 0 56
0 57 0 94
0 58 0 43
0 59 0 63
0 60 0 45
0 61 0 60
0 62 0 31
0 63 0 71
0 64 0 72
0 65 0 18
0 66 0 79
0 67 0 98
0 68 0 62
0 69 0 120
0 70 0 22
0 71 0 56
0 72 0 92
0 73 0 102
0 74 0 82
0 75 0 63
0 76 0 85
0 77 0 46
0 78 0 89
0 79 0 37
0 80 0 70
0 81 0 72
0 82 0 52
0 83 0 109
0 84 0 67
0 85 0 42
0 86 0 67
0 87 0 56
0 88 0 103
0 89 0 111
0 90 0 70
0 91 0 97
0 92 0 26
0 93 0 96
0 94 0 87
0 95 0 98
0 96 0 94
0 97 0 46
0 98 0 79
0 99 0 116
0 100 0 104
0 101 0 52
0 102 0 103
0 103 0 59
0 104 0 116
0 105 0 121
0 106 0 104
0 107 0 97
0 108 0 99
0 109 0 113
0 110 0 118
0 111 0 126
0 112 0 97
0 113 0 116
0 114 0 127
0 115 0 116
0 116 0 92
0 117 0 118
0 118 0 129
0 119 0 123
0 120 0 132
0 121 0 133
